0.750000 0.500000 1.000000
5
3 2 3 4 
3 5 6 7 
5 8 9 10 11 12 
5 13 14 15 16 17 
4 18 19 20 21 
1 1 
1 2 
1 2 
1 2 
1 2 
1 2 
1 2 
1 2 
1 2 
1 2 
1 2 
1 2 
1 2 
1 2 
1 2 
1 2 
1 2 
1 2 
1 2 
1 2 
1 2 
1 2 
1 2 
1 3 
1 3 
1 3 
1 3 
1 3 
1 3 
1 3 
1 3 
1 3 
1 3 
1 3 
1 3 
1 4 
1 4 
1 4 
1 4 
1 4 
1 4 
1 4 
1 4 
1 4 
1 4 
1 4 
1 4 
1 4 
1 4 
1 4 
1 4 
1 4 
1 4 
1 4 
1 4 
1 4 
1 4 
1 5 
1 5 
1 5 
1 5 
1 5 
1 5 
1 5 
1 5 
1 5 
1 5 
1 5 
1 5 
1 6 
1 6 
1 6 
1 6 
1 6 
1 6 
1 6 
1 6 
1 6 
1 6 
1 6 
1 6 
1 7 
1 7 
1 7 
1 7 
1 7 
1 7 
1 7 
1 7 
1 7 
2 7 2 
1 7 
2 7 2 
1 1 
1 8 
1 8 
1 8 
2 8 7 
2 8 7 
1 8 
1 8 
1 8 
2 8 7 
1 8 
1 8 
1 8 
2 8 7 
2 8 7 
2 8 7 
2 8 7 
2 8 7 
2 8 7 
1 8 
2 8 7 
2 8 7 
2 8 7 
1 9 
1 9 
1 9 
1 9 
1 9 
1 9 
1 9 
1 9 
1 9 
1 9 
1 9 
1 9 
1 9 
1 9 
1 9 
1 9 
1 9 
1 9 
1 9 
1 9 
1 9 
1 9 
1 10 
1 10 
1 10 
1 10 
1 10 
1 10 
1 10 
1 10 
1 10 
1 10 
1 10 
1 10 
1 10 
1 10 
1 10 
1 10 
1 10 
1 10 
1 10 
1 10 
1 10 
1 10 
1 11 
1 11 
1 11 
1 11 
1 11 
1 11 
1 11 
1 11 
1 11 
1 11 
1 11 
1 11 
1 12 
1 12 
1 12 
1 12 
1 12 
1 12 
1 12 
1 12 
1 12 
1 12 
1 12 
1 12 
1 12 
1 12 
1 12 
1 12 
1 12 
1 12 
1 12 
1 12 
1 12 
1 12 
1 13 
1 13 
1 13 
2 13 4 
1 13 
2 13 4 
3 13 4 5 
1 13 
1 13 
1 13 
2 13 12 
4 13 4 5 12 
1 14 
1 14 
1 14 
1 14 
1 14 
1 14 
1 14 
1 14 
1 14 
1 14 
1 14 
1 14 
1 15 
1 15 
1 15 
1 15 
1 15 
1 15 
2 15 14 
1 15 
1 15 
1 15 
1 15 
2 15 14 
1 16 
1 16 
1 16 
1 16 
3 16 3 13 
1 16 
3 16 3 13 
1 16 
2 16 15 
1 16 
1 16 
4 16 3 13 15 
1 17 
1 17 
1 17 
1 17 
1 17 
2 17 10 
2 17 11 
2 17 11 
2 17 10 
1 17 
1 17 
3 17 10 11 
1 1 
1 18 
1 18 
1 18 
1 18 
1 18 
1 18 
1 18 
1 18 
1 18 
4 18 16 3 13 
1 18 
4 18 16 3 13 
1 19 
1 19 
1 19 
1 19 
3 19 17 11 
2 19 6 
4 19 6 17 11 
4 19 6 17 11 
4 19 6 17 11 
4 19 6 17 11 
1 19 
4 19 6 17 11 
1 20 
1 20 
1 20 
1 20 
1 20 
1 20 
1 20 
1 20 
5 20 18 16 3 13 
6 20 18 16 3 13 19 
5 20 18 16 3 13 
6 20 18 16 3 13 19 
1 21 
1 21 
1 21 
1 21 
1 21 
1 21 
2 21 20 
1 21 
2 21 20 
2 21 8 
2 21 9 
4 21 8 9 20 
1 1 
